Cost:    1094.46
Running time:     300.00

Solution: 
0     89     18    114      8     46    124     47     36    143     49     64     63    126     10      0      
0    132     69    101     70     30     20    103      9    120     81     33    102     50      0      
0     27    127     31    108     90     32    131    128     66     51    122      1      0      
0    111     76    116     77      3     79    129     78     34    135     35    136     65     71      0      
0    146     52    106      7     82     48    123     19    107     11     62    148     88      0      
0     94     95     92     37    100     91    141     86     16     85      0      
0    112     13    117     97     98     61    113     17     84     45    125     83      0      
0    105     40      2    115    145     41     22    133     75     72      0      
0    147      6     96    104     99     59     93      5    118     60      0      
0     53     58    137     87    144     57     15     43     42    142     14     38    140     44    119      0      
0     28    138     12    109     54    130    134     24     29    121     68    150     80      0      
0     26    149    110      4     55     25    139     39     67     23     56     74     73     21      0      
